p cnf 196 699
c t mc
3 1 0
3 2 0
-1 -2 -3 0
-6 4 0
-6 -5 0
-4 5 6 0
-8 6 0
-8 -7 0
-6 7 8 0
8 2 -9 0
-8 -2 -9 0
8 -2 9 0
-8 2 9 0
-9 10 -11 0
9 -10 -11 0
-9 -10 11 0
9 10 11 0
-12 13 -14 0
12 -13 -14 0
-12 -13 14 0
12 13 14 0
14 7 -15 0
-14 -7 -15 0
14 -7 15 0
-14 7 15 0
-6 -15 -16 0
6 15 -16 0
-6 15 16 0
6 -15 16 0
19 -17 0
19 -18 0
17 18 -19 0
20 -14 0
20 19 0
14 -19 -20 0
23 21 0
23 -22 0
-21 22 -23 0
25 4 0
25 -24 0
-4 24 -25 0
-26 23 0
-26 -25 0
-23 25 26 0
20 -26 -27 0
-20 26 -27 0
20 26 27 0
-20 -26 27 0
-28 -16 0
-28 -27 0
16 27 28 0
8 9 -29 0
-8 -9 -29 0
8 -9 29 0
-8 9 29 0
-30 -27 0
-30 6 0
27 -6 30 0
-31 29 0
-31 30 0
-29 -30 31 0
32 -28 0
32 -31 0
28 31 -32 0
-33 -11 0
-33 32 0
11 -32 33 0
3 33 -34 0
-3 -33 -34 0
3 -33 34 0
-3 33 34 0
-36 -18 0
-36 -35 0
18 35 36 0
-12 -36 -37 0
12 36 -37 0
-12 36 37 0
12 -36 37 0
38 -35 0
38 37 0
35 -37 -38 0
39 -2 0
39 38 0
2 -38 -39 0
-20 -39 -40 0
20 39 -40 0
-20 39 40 0
20 -39 40 0
24 -2 -41 0
-24 2 -41 0
24 2 41 0
-24 -2 41 0
42 -40 0
42 -41 0
40 41 -42 0
-43 -42 0
-43 -36 0
42 36 43 0
-45 44 0
-45 -8 0
-44 8 45 0
-26 -45 -46 0
26 45 -46 0
-26 45 46 0
26 -45 46 0
43 46 -47 0
-43 -46 -47 0
43 -46 47 0
-43 46 47 0
49 48 0
49 -7 0
-48 7 -49 0
-50 49 0
-50 2 0
-49 -2 50 0
51 36 0
51 -22 0
-36 22 -51 0
53 -7 0
53 5 0
7 -5 -53 0
54 52 0
54 53 0
-52 -53 -54 0
55 40 0
55 -54 0
-40 54 -55 0
51 55 -56 0
-51 -55 -56 0
51 -55 56 0
-51 55 56 0
-57 50 0
-57 -56 0
-50 56 57 0
58 -47 0
58 -57 0
47 57 -58 0
59 -38 -60 0
-59 38 -60 0
59 38 60 0
-59 -38 60 0
-59 17 -61 0
59 -17 -61 0
-59 -17 61 0
59 17 61 0
62 61 0
62 60 0
-61 -60 -62 0
-60 -62 -63 0
60 62 -63 0
-60 62 63 0
60 -62 63 0
64 -16 0
64 1 0
16 -1 -64 0
-65 40 0
-65 48 0
-40 -48 65 0
65 -5 -66 0
-65 5 -66 0
65 5 66 0
-65 -5 66 0
24 -2 -67 0
-24 2 -67 0
24 2 67 0
-24 -2 67 0
9 37 -68 0
-9 -37 -68 0
9 -37 68 0
-9 37 68 0
69 68 0
69 18 0
-68 -18 -69 0
-70 67 0
-70 69 0
-67 -69 70 0
71 -66 0
71 -70 0
66 70 -71 0
64 71 -72 0
-64 -71 -72 0
64 -71 72 0
-64 71 72 0
73 -17 -74 0
-73 17 -74 0
73 17 74 0
-73 -17 74 0
75 74 0
75 45 0
-74 -45 -75 0
-76 75 0
-76 -61 0
-75 61 76 0
1 5 -77 0
-1 -5 -77 0
1 -5 77 0
-1 5 77 0
78 -76 0
78 77 0
76 -77 -78 0
-72 78 -79 0
72 -78 -79 0
-72 -78 79 0
72 78 79 0
-80 73 0
-80 65 0
-73 -65 80 0
-81 52 0
-81 80 0
-52 -80 81 0
82 -5 0
82 1 0
5 -1 -82 0
83 82 0
83 -82 0
25 17 -84 0
-25 -17 -84 0
25 -17 84 0
-25 17 84 0
85 -29 0
85 84 0
29 -84 -85 0
-65 4 -86 0
65 -4 -86 0
-65 -4 86 0
65 4 86 0
-85 -86 -87 0
85 86 -87 0
-85 86 87 0
85 -86 87 0
-88 83 0
-88 -87 0
-83 87 88 0
-89 81 0
-89 -88 0
-81 88 89 0
-79 -89 -90 0
79 89 -90 0
-79 89 90 0
79 -89 90 0
-63 90 -91 0
63 -90 -91 0
-63 -90 91 0
63 90 91 0
92 54 0
92 -13 0
-54 13 -92 0
-93 7 0
-93 42 0
-7 -42 93 0
-21 -74 -94 0
21 74 -94 0
-21 74 94 0
21 -74 94 0
-95 6 0
-95 -9 0
-6 9 95 0
96 -21 0
96 -73 0
21 73 -96 0
-97 -96 0
-97 -69 0
96 69 97 0
-98 -95 0
-98 97 0
95 -97 98 0
-51 41 -99 0
51 -41 -99 0
-51 -41 99 0
51 41 99 0
100 -98 0
100 -99 0
98 99 -100 0
-101 -94 0
-101 -100 0
94 100 101 0
102 45 0
102 61 0
-45 -61 -102 0
14 102 -103 0
-14 -102 -103 0
14 -102 103 0
-14 102 103 0
104 7 0
104 -22 0
-7 22 -104 0
-105 -104 0
-105 7 0
104 -7 105 0
106 103 0
106 105 0
-103 -105 -106 0
-107 101 0
-107 106 0
-101 -106 107 0
-108 93 0
-108 -107 0
-93 107 108 0
-92 108 -109 0
92 -108 -109 0
-92 -108 109 0
92 108 109 0
-91 109 -110 0
91 -109 -110 0
-91 -109 110 0
91 109 110 0
111 -37 0
111 19 0
37 -19 -111 0
112 -41 0
112 9 0
41 -9 -112 0
113 -111 0
113 112 0
111 -112 -113 0
114 110 0
114 -113 0
-110 113 -114 0
-21 -24 -115 0
21 24 -115 0
-21 24 115 0
21 -24 115 0
-61 -115 -116 0
61 115 -116 0
-61 115 116 0
61 -115 116 0
117 38 0
117 15 0
-38 -15 -117 0
118 -116 0
118 -117 0
116 117 -118 0
-119 13 0
-119 18 0
-13 -18 119 0
120 -119 0
120 14 0
119 -14 -120 0
-1 120 -121 0
1 -120 -121 0
-1 -120 121 0
1 120 121 0
-122 -84 0
-122 75 0
84 -75 122 0
123 -112 0
123 -12 0
112 12 -123 0
-124 122 0
-124 -123 0
-122 123 124 0
125 121 0
125 -124 0
-121 124 -125 0
126 118 0
126 125 0
-118 -125 -126 0
127 10 0
127 37 0
-10 -37 -127 0
-128 126 0
-128 -127 0
-126 127 128 0
-129 114 0
-129 -128 0
-114 128 129 0
-130 -18 0
-130 17 0
18 -17 130 0
131 5 0
131 -130 0
-5 130 -131 0
-43 -131 -132 0
43 131 -132 0
-43 131 132 0
43 -131 132 0
-133 -37 0
-133 112 0
37 -112 133 0
132 -133 -134 0
-132 133 -134 0
132 133 134 0
-132 -133 134 0
-135 -129 0
-135 134 0
129 -134 135 0
136 -35 0
136 -66 0
35 66 -136 0
-137 -15 0
-137 73 0
15 -73 137 0
-138 -137 0
-138 -61 0
137 61 138 0
139 138 0
139 -119 0
-138 119 -139 0
140 -139 0
140 20 0
139 -20 -140 0
-141 136 0
-141 -140 0
-136 140 141 0
142 -18 0
142 130 0
18 -130 -142 0
143 -2 0
143 142 0
2 -142 -143 0
-144 -143 0
-144 -74 0
143 74 144 0
-145 -144 0
-145 52 0
144 -52 145 0
141 -145 -146 0
-141 145 -146 0
141 145 146 0
-141 -145 146 0
35 -24 -147 0
-35 24 -147 0
35 24 147 0
-35 -24 147 0
104 147 -148 0
-104 -147 -148 0
104 -147 148 0
-104 147 148 0
-149 59 0
-149 18 0
-59 -18 149 0
-150 17 0
-150 -149 0
-17 149 150 0
-148 150 -151 0
148 -150 -151 0
-148 -150 151 0
148 150 151 0
146 -151 -152 0
-146 151 -152 0
146 151 152 0
-146 -151 152 0
-153 -30 0
-153 12 0
30 -12 153 0
154 -12 0
154 12 0
153 154 -155 0
-153 -154 -155 0
153 -154 155 0
-153 154 155 0
15 115 -156 0
-15 -115 -156 0
15 -115 156 0
-15 115 156 0
74 156 -157 0
-74 -156 -157 0
74 -156 157 0
-74 156 157 0
-158 -38 0
-158 23 0
38 -23 158 0
-62 -55 -159 0
62 55 -159 0
-62 55 159 0
62 -55 159 0
-36 159 -160 0
36 -159 -160 0
-36 -159 160 0
36 159 160 0
161 -160 0
161 8 0
160 -8 -161 0
-162 -158 0
-162 161 0
158 -161 162 0
163 157 0
163 -162 0
-157 162 -163 0
-23 -59 -164 0
23 59 -164 0
-23 59 164 0
23 -59 164 0
-165 -68 0
-165 -7 0
68 7 165 0
166 -21 0
166 165 0
21 -165 -166 0
-16 54 -167 0
16 -54 -167 0
-16 -54 167 0
16 54 167 0
-26 -42 -168 0
26 42 -168 0
-26 42 168 0
26 -42 168 0
-59 168 -169 0
59 -168 -169 0
-59 -168 169 0
59 168 169 0
17 96 -170 0
-17 -96 -170 0
17 -96 170 0
-17 96 170 0
171 -169 0
171 -170 0
169 170 -171 0
-172 -167 0
-172 -171 0
167 171 172 0
-173 35 0
-173 23 0
-35 -23 173 0
-174 131 0
-174 -173 0
-131 173 174 0
-172 174 -175 0
172 -174 -175 0
-172 -174 175 0
172 174 175 0
-176 166 0
-176 175 0
-166 -175 176 0
177 -164 0
177 -176 0
164 176 -177 0
-178 45 -179 0
178 -45 -179 0
-178 -45 179 0
178 45 179 0
-180 177 0
-180 179 0
-177 -179 180 0
181 -163 0
181 -180 0
163 180 -181 0
182 155 0
182 181 0
-155 -181 -182 0
-183 -152 0
-183 182 0
152 -182 183 0
184 -135 0
184 183 0
135 -183 -184 0
-185 111 -186 0
185 -111 -186 0
-185 -111 186 0
185 111 186 0
-187 38 0
-187 -55 0
-38 55 187 0
188 -186 0
188 187 0
186 -187 -188 0
-189 -61 0
-189 52 0
61 -52 189 0
-190 188 0
-190 189 0
-188 -189 190 0
-191 -130 0
-191 123 0
130 -123 191 0
191 10 -192 0
-191 -10 -192 0
191 -10 192 0
-191 10 192 0
-190 192 -193 0
190 -192 -193 0
-190 -192 193 0
190 192 193 0
-194 184 0
-194 193 0
-184 -193 194 0
195 58 0
195 -194 0
-58 194 -195 0
196 34 0
196 -195 0
-34 195 -196 0
2 -92 -77 -69 -47 0
65 -117 149 0
-69 -194 0
-34 2 107 -60 6 -134 0
36 99 180 -154 129 -145 67 -62 -92 0
-166 123 83 -33 35 187 65 -5 155 157 0
165 110 -121 -120 -188 -106 -25 59 66 -29 0
90 -22 91 36 -54 -130 -196 0
-165 -157 -146 10 -52 21 0
-123 73 -55 0
-193 -119 -77 29 -74 -135 159 -47 0
-103 -77 -50 -65 80 -2 -133 164 -54 -86 0
55 -20 141 34 37 148 152 -39 0
-25 147 43 -88 -67 -109 156 0
47 54 -31 0
82 -65 -161 -170 0
130 57 46 -32 0
-158 132 38 -30 104 137 20 0
140 18 -106 118 137 -161 -81 0
155 79 95 0
189 164 133 125 172 -61 0
-50 -196 60 0
59 78 193 -165 150 191 0
-153 79 9 0
73 81 173 -2 -88 -144 0
-139 25 -33 196 -60 -172 -162 22 -103 0
-32 59 100 6 172 0
113 34 0
-47 3 -133 94 -86 65 -184 -85 57 0
137 61 122 -33 97 146 -182 -116 -89 -135 0
-131 -188 86 -76 -125 179 -136 -132 -133 0
-77 2 9 23 0
104 -125 143 171 0
143 -142 -16 -179 -160 -103 0
26 -176 -101 -33 -163 148 0
-189 -94 58 -146 0
-158 15 56 -129 50 0
49 161 177 -45 72 0
-42 27 -132 -31 47 82 -22 -134 0
134 13 0
-196 -97 -21 -195 0
76 97 -44 136 178 96 -116 150 7 0
-128 -28 82 94 36 121 -190 -123 134 0
-34 161 119 76 -111 74 -13 0
-149 -46 99 -85 137 -49 0
-144 20 -60 32 0
-112 59 42 160 -27 -39 -165 0
65 -25 38 0
-45 109 -180 190 29 -18 100 -141 -33 0
40 -97 178 188 190 81 -136 0
7 6 -88 -156 0
11 8 -136 118 39 -82 -139 52 0
-120 175 -62 -124 -153 -114 4 101 167 -79 0
-32 -72 13 0
-122 -160 -9 -100 90 0
191 -57 -34 0
2 -78 0
-31 68 152 87 0
44 -85 32 13 154 -151 168 -64 147 0
66 70 130 0
-11 -60 86 52 -85 35 126 0
122 -109 -14 18 128 148 156 -44 -189 -40 0
160 23 0
42 100 -93 189 60 68 52 15 14 0
-17 98 -129 -52 -90 7 -82 155 0
139 112 82 0
188 -1 -2 39 -153 -133 0
-102 143 -147 -116 185 -38 0
156 44 0
-77 164 -182 37 -111 -13 51 0
-11 -61 12 83 44 172 168 0
60 -102 13 -107 -99 -35 77 148 -194 0
61 122 -137 -99 -55 0
-107 -75 67 176 193 78 62 0
148 -16 -182 46 17 0
-183 -70 95 12 176 0
2 -111 63 -29 31 -110 0
143 15 189 174 -7 -187 0
-183 185 0
-63 -116 -26 184 0
-31 183 119 26 -81 -186 -111 7 0
-90 149 -168 0
14 -80 -168 -125 103 0
75 -77 0
-168 -31 106 10 -135 74 170 -153 0
122 -45 -84 175 -183 181 166 0
-49 130 -30 -145 128 192 -55 -153 0
-64 -57 101 -96 -51 -7 -73 192 -52 26 0
-60 5 48 -127 62 0
14 15 -159 -96 97 32 0
29 54 -173 -56 -127 0
-19 154 -195 22 95 0
-88 -29 -175 31 126 -11 72 -131 -150 -178 0
88 128 109 16 0
21 -100 -26 0
-58 -145 196 -131 0
86 60 154 68 -83 100 -171 0
66 73 0
-108 4 42 185 56 14 -76 161 -44 117 0
-47 -4 16 -41 -8 10 -131 0
-75 -181 -164 41 -113 -119 80 -175 0
184 25 137 158 -127 81 -43 136 -171 -185 0
103 158 -88 0
-128 -168 75 -157 183 91 0
-57 -83 -179 106 -80 0
95 -165 -175 75 130 0
-38 143 -119 189 0
159 154 102 -67 21 186 73 0
20 -147 0
-181 91 171 -70 129 -170 -173 0
-77 138 0
87 79 -69 0
154 33 34 -102 82 -91 -101 47 0
92 -12 194 109 -185 55 -66 0
87 -190 -104 -8 -55 -74 0
-162 72 97 0
196 0
